p edge 67
e 0 22
e 0 26
e 0 28
e 0 54
e 0 58
e 0 64
e 1 28
e 1 33
e 1 37
e 1 46
e 1 53
e 1 62
e 2 17
e 2 39
e 2 43
e 2 45
e 2 56
e 3 15
e 3 38
e 3 49
e 4 14
e 4 24
e 4 32
e 4 35
e 4 58
e 5 7
e 5 18
e 5 31
e 5 55
e 5 61
e 6 7
e 6 10
e 6 29
e 6 30
e 7 10
e 7 29
e 7 31
e 7 55
e 8 21
e 8 24
e 8 32
e 8 41
e 8 44
e 8 54
e 8 63
e 9 11
e 9 33
e 9 46
e 9 51
e 9 60
e 9 65
e 10 31
e 11 42
e 11 60
e 11 65
e 12 16
e 12 47
e 12 49
e 12 59
e 13 25
e 13 29
e 13 30
e 13 40
e 13 53
e 13 55
e 14 27
e 14 35
e 14 58
e 14 64
e 15 16
e 15 19
e 15 38
e 15 49
e 15 57
e 15 66
e 16 47
e 16 49
e 16 66
e 17 43
e 17 52
e 18 41
e 18 61
e 18 63
e 19 38
e 19 52
e 19 57
e 20 30
e 20 40
e 20 48
e 20 51
e 21 25
e 21 28
e 21 54
e 21 62
e 21 63
e 22 23
e 22 26
e 22 45
e 22 50
e 22 64
e 23 43
e 23 45
e 23 50
e 23 52
e 23 57
e 23 66
e 24 32
e 24 44
e 25 53
e 25 55
e 25 61
e 25 62
e 25 63
e 26 28
e 26 36
e 26 37
e 26 45
e 27 34
e 27 35
e 27 47
e 27 50
e 27 64
e 28 37
e 28 54
e 28 62
e 29 30
e 29 55
e 30 40
e 30 48
e 32 54
e 32 58
e 33 36
e 33 37
e 33 39
e 33 46
e 33 56
e 33 65
e 34 35
e 34 47
e 34 59
e 36 37
e 36 39
e 36 45
e 39 45
e 39 56
e 40 46
e 40 51
e 40 53
e 41 44
e 41 63
e 42 60
e 43 45
e 43 52
e 46 51
e 46 53
e 47 50
e 47 59
e 47 66
e 48 51
e 48 60
e 50 64
e 50 66
e 51 60
e 52 57
e 53 62
e 54 58
e 55 61
e 56 65
e 57 66
e 58 64
e 61 63
c k 7
